# Fe3O4 -- [0, 1, 0][1, 0, 0] grain boundary
# atom types: 1 -- Fe, 2 -- O
# units real: mass = g/mole; dist = Angstroms; time = fs;
# energy = Kcal/mole = 4184 J/mole

units 		real
dimension	3
atom_style	charge
neigh_modify	delay 5
neighbor	0.3 bin

#---------------------Geometry of the model------------------

variable a equal 6.1602
variable b equal 6.1877
variable c equal 6.1868

region box block 0 $(3*v_c) 0 42.4 0 40 units box
boundary	p p s
create_box 2 box

read_data	coolannealedboundary.data	add append

region boundary block -1000 1000 -1000 1000 17 23
group boundary region boundary

#---------------Define potential and run minimization

pair_style	reax/c	NULL
pair_coeff	* *	ffield.reax.Fe_O_C_H Fe O
fix             2 all qeq/reax 1 0.0 10.0 1e-6 reax/c

compute	  	T all temp
fix 		1 all nve
thermo		10
thermo_style 	custom etotal step dt

velocity	all create 900 239239239
#fix 		3 all temp/rescale 10 900 900 1 1.0

timestep 	0.05
run 20000














