# Fe3O4 -- [0, 1, 0][1, 0, 0] grain boundary
# atom types: 1 -- Fe, 2 -- O
# units real: mass = g/mole; dist = Angstroms; time = fs;
# energy = Kcal/mole = 4184 J/mole

units 		real
dimension	3
atom_style	charge
neigh_modify	delay 5
neighbor	0.3 bin

#---------------------Geometry of the model------------------

variable a equal 6.1602
variable b equal 6.1877
variable c equal 6.1868

region box block 0 $(3*v_c) 0 42.4 0 40 units box
boundary	p p s
create_box 2 box

read_data	annealedboundary.data	add append

region boundary block -1000 1000 -1000 1000 10 22
group boundary region boundary
group Fe type 1
group O type 2
group Feb intersect boundary Fe #Fe in the boundary
group Ob intersect boundary O #O in the boundary

#---------------Define potential and run minimization

pair_style	reax/c	NULL
pair_coeff	* *	ffield.reax.Fe_O_C_H Fe O
fix             2 all qeq/reax 1 0.0 10.0 1e-6 reax/c

compute	  	T all temp
compute 	atomdisp boundary displace/atom
compute		avesqdispFe1 Feb reduce avesq c_atomdisp[1]
compute         avesqdispFe2 Feb reduce avesq c_atomdisp[2]
compute         avesqdispFe3 Feb reduce avesq c_atomdisp[3]
compute         avesqdispFe4 Feb reduce avesq c_atomdisp[4]
compute         avesqdispO1 Ob reduce avesq c_atomdisp[1]
compute         avesqdispO2 Ob reduce avesq c_atomdisp[2]
compute         avesqdispO3 Ob reduce avesq c_atomdisp[3]
compute         avesqdispO4 Ob reduce avesq c_atomdisp[4]

fix 		1 all nve
timestep 	0.2
thermo		10
thermo_style 	custom step pe c_T &
	c_avesqdispFe1 c_avesqdispFe2 &
	c_avesqdispFe3 c_avesqdispFe4 &
	c_avesqdispO1 c_avesqdispO2 &
	c_avesqdispO3 c_avesqdispO4

dump		1 all custom 10 dump1200 id type x y z c_atomdisp[4]

velocity	all create 1200 239239239
fix 		3 all temp/rescale 10 1200 1200 1 1.0

run 250000













